35 9 37 13 78 34 14 40 36 42 2 20 7 30 72 15 22 8 60 45 0 11 77 3 49 16 53 33 51 29 26 56 6 4 24 70 39 23 5 10 44 41 21 12 43 74 46 71 48 19 50 17 52 1 27 55 58 57 79 59 18 73 62 63 64 65 32 67 68 47 25 54 28 61 69 75 76 66 38 31
35 9 37 13 78 34 14 40 36 42 2 20 7 30 72 15 22 8 60 45 0 11 77 3 49 16 53 33 51 29 26 56 6 4 24 70 39 23 5 10 44 41 21 12 43 74 46 71 48 19 50 17 52 1 27 55 58 57 79 59 18 73 62 63 64 65 32 67 68 47 25 54 28 61 69 75 76 66 38 31
35 9 37 13 78 34 14 40 36 42 2 20 7 30 72 15 22 8 60 45 0 11 77 3 49 16 53 33 51 29 26 56 6 4 24 70 39 23 5 10 44 41 21 12 43 74 46 71 48 19 50 17 52 1 27 55 58 57 79 59 18 73 62 63 64 65 32 67 68 47 25 54 28 61 69 75 76 66 38 31
35 9 37 13 78 34 14 40 36 42 2 20 7 30 72 15 22 8 60 45 0 11 77 3 49 16 53 33 51 29 26 56 6 4 24 70 39 23 5 10 44 41 21 12 43 74 46 71 48 19 50 17 52 1 27 55 58 57 79 59 18 73 62 63 64 65 32 67 68 47 25 54 28 61 69 75 76 66 38 31
35 9 37 13 78 34 14 40 36 42 2 20 7 30 72 15 22 8 60 45 0 11 77 3 49 16 53 33 51 29 26 56 6 4 24 70 39 23 5 10 44 41 21 12 43 74 46 71 48 19 50 17 52 1 27 55 58 57 79 59 18 73 62 63 64 65 32 67 68 47 25 54 28 61 69 75 76 66 38 31
